France 1
5 42 0 
1 3000 561 474 150 476 115 356 356 524 276 145 367 155 202 454 326 353 558 531 296 358 527 424 486 123 453 216 289 64 527 471 626 608 300 780 347 514 466 592 516 352 619 385 
2 3000 539 511 256 542 187 346 473 525 396 78 463 240 129 373 446 259 649 476 351 277 418 527 516 217 571 212 203 184 461 395 706 575 184 760 229 448 369 491 433 241 700 498 
3 3000 663 424 366 312 448 509 258 570 226 562 423 307 547 736 138 768 232 735 323 663 874 90 453 407 76 454 703 364 759 738 335 730 715 826 760 748 784 909 794 723 328 306 
4 3000 703 507 195 430 285 515 106 627 40 422 247 251 469 699 48 620 407 734 350 611 805 249 532 241 183 414 555 228 747 708 504 765 589 896 637 735 730 858 761 637 497 157 
5 3000 179 437 783 570 751 319 934 284 844 658 999 586 456 237 835 731 751 109 499 318 371 750 410 764 894 434 717 684 132 208 723 120 609 264 599 144 298 303 207 434 722 979 
